200,161
414,270
622,415
368,507
681,496
702,427
1006,355
1137,258
723,364
723,140
745,207
723,140
839,188
888,438
850,575
792,748
627,512
425,489
681,-44
1137,258
1214,322
874,140
561,36
414,270
600,246
723,364
702,427
627,512
427,660
792,748
1020,745
